Version identifier: 20.1.0.0 | 2020-11-10 | 9bedb6d68
Tried aggregator 2 times.
MIP Presolve eliminated 1231 rows and 614 columns.
MIP Presolve modified 3166 coefficients.
Aggregator did 144 substitutions.
Reduced MIP has 1834 rows, 1457 columns, and 6022 nonzeros.
Reduced MIP has 303 binaries, 1154 generals, 0 SOSs, and 0 indicators.
Presolve time = 0.02 sec. (7.36 ticks)
Found incumbent of value 2748.000000 after 0.04 sec. (14.74 ticks)
Probing fixed 38 vars, tightened 458 bounds.
Probing time = 0.00 sec. (1.30 ticks)
Tried aggregator 2 times.
Detecting symmetries...
MIP Presolve eliminated 737 rows and 54 columns.
MIP Presolve modified 157 coefficients.
Aggregator did 12 substitutions.
Reduced MIP has 1085 rows, 1391 columns, and 3545 nonzeros.
Reduced MIP has 469 binaries, 922 generals, 0 SOSs, and 0 indicators.
Presolve time = 0.01 sec. (5.02 ticks)
Probing time = 0.00 sec. (0.35 ticks)
Clique table members: 23.
MIP emphasis: balance optimality and feasibility.
MIP search method: dynamic search.
Parallel mode: deterministic, using up to 24 threads.
Root relaxation solution time = 0.01 sec. (4.24 ticks)

        Nodes                                         Cuts/
   Node  Left     Objective  IInf  Best Integer    Best Bound    ItCnt     Gap

*     0+    0                         2748.0000        0.0000           100.00%
      0     0        0.0000    85     2748.0000        0.0000      356  100.00%
      0     0        0.0000    94     2748.0000     Cuts: 222      562  100.00%
      0     0        0.0000    39     2748.0000     Cuts: 131      874  100.00%
      0     0        0.3017   281     2748.0000      Cuts: 84      985   99.99%
*     0+    0                           29.0000        0.3017            98.96%
*     0+    0                           12.0000        0.3017            97.49%
      0     0        cutoff             12.0000       12.0000     1057    0.00%
Elapsed time = 0.93 sec. (106.50 ticks, tree = 0.01 MB, solutions = 3)

Implied bound cuts applied:  73
Flow cuts applied:  14
Mixed integer rounding cuts applied:  25
Zero-half cuts applied:  177
Lift and project cuts applied:  7
Gomory fractional cuts applied:  15

Root node processing (before b&c):
  Real time             =    0.94 sec. (106.62 ticks)
Parallel b&c, 24 threads:
  Real time             =    0.00 sec. (0.00 ticks)
  Sync time (average)   =    0.00 sec.
  Wait time (average)   =    0.00 sec.
                          ------------
Total (root+branch&cut) =    0.94 sec. (106.62 ticks)

Solution status = Optimal
Solution LB = 12
Solution UB = 12
Runtime = 0.940187 seconds
	Command being timed: "/home/min/git_repos/CS598MEBProject/CNT-ILP/build/cnt -s 2 ./output/k8_n20/simC_c1_k8_n20_u3_s2_del04.input-left.cnp"
	User time (seconds): 12.75
	System time (seconds): 0.07
	Percent of CPU this job got: 1331%
	Elapsed (wall clock) time (h:mm:ss or m:ss): 0:00.96
	Average shared text size (kbytes): 0
	Average unshared data size (kbytes): 0
	Average stack size (kbytes): 0
	Average total size (kbytes): 0
	Maximum resident set size (kbytes): 102872
	Average resident set size (kbytes): 0
	Major (requiring I/O) page faults: 0
	Minor (reclaiming a frame) page faults: 22761
	Voluntary context switches: 5386
	Involuntary context switches: 2383
	Swaps: 0
	File system inputs: 0
	File system outputs: 16
	Socket messages sent: 0
	Socket messages received: 0
	Signals delivered: 0
	Page size (bytes): 4096
	Exit status: 0
